c Result of efficient AIG-to-CNF conversion using package CNF
p cnf 32 70
-2 3 10 0
-2 -3 -10 0
2 -3 10 0
2 3 -10 0
-3 -4 -9 0
-3 4 9 0
3 4 -9 0
3 -4 9 0
-4 -5 -8 0
-4 5 8 0
4 5 -8 0
4 -5 8 0
-5 -6 -7 0
-5 6 7 0
5 6 -7 0
5 -6 7 0
6 -17 -24 0
-6 17 0
-6 24 0
7 -21 -22 0
-7 21 0
-7 22 0
8 -19 -27 0
-8 19 0
-8 27 0
9 -19 -21 -22 -24 0
-9 24 0
-9 19 0
-9 22 0
-9 21 0
-10 -11 -16 0
-10 11 16 0
10 11 -16 0
10 -11 16 0
-11 -12 -15 0
-11 12 15 0
11 12 -15 0
11 -12 15 0
-12 -13 -14 0
-12 13 14 0
12 13 -14 0
12 -13 14 0
13 21 -31 0
13 17 -31 0
-13 31 0
-13 -17 -21 0
14 19 -21 22 0
14 -19 -21 27 0
14 -19 21 -27 0
-14 21 27 0
-14 19 21 0
-14 19 -22 0
-14 -19 -21 -27 0
15 17 21 -31 0
15 21 24 -31 0
15 17 24 -31 0
15 -17 21 -24 31 0
15 17 -21 -24 31 0
-15 -17 -21 0
-15 24 31 0
-15 17 21 31 0
-15 -17 -24 -31 0
-15 -21 -24 -31 0
16 19 -21 24 0
16 -21 22 24 0
-16 21 0
-16 -24 0
-16 -19 -22 0
-32 0
2 0

